num_features = 28;
num_usage_limits = 11;
num_plans = 4;
num_addons = 2;

features = ["posts", "pages", "publishTweets", "aiPostRewrite", "aiPostGenerate", "firstCommentScheduling", "recurringPosts", "omnichannelPlanning", "builtInMediaEditor", "workspaces", "feedView", "calendarView", "gridView", "listView", "labels", "mediaStorage", "syncPreviousContent", "publishedPostsStorage", "archivedPostsStorage", "sharedContentPlanning", "noneApprovalWorkflows", "optionalApprovalWorkflows", "requiredApprovalWorkflows", "multiLevelApprovalWorkflows", "teamOnlyDraftPosts", "versionHistory", "teamOnlyNotes", "bulkApproval", "bulkRequestForApproval", "textAnnotations", "suggestEdits", "pageLevelInsights", "postLevelMetrics", "customReports", "audienceInsights", "selfServeKnowledgeBase", "prioritySupport", "chatSupport", "personalizedOnboarding", "dedicatedAccountManager"];
usage_limits = ["postsLimit", "postsPerMonthLimit", "socialMediaPagesLimit", "tweetsLimit", "workspacesLimit", "numberOfLabels", "mediaStorageCapacity", "publishedPostsStorageLimit", "archivedPostsStorageLimit", "versionHistoryThreshold", "audienceInsights"];
plans = ["FREE", "BASIC", "PRO", "ENTERPRISE"];
addons = ["extraWorkspace", "analyticsAndReporting"];

plans_prices = [0.0,13.0,26.0,1000000000000.0];
addons_prices = [20.0,9.0];

plans_features = array2d(PLANS, FEATURES, [
    % FREE
    1,1,1,1,1,1,1,1,1,1,1,1,1,1,1,1,1,1,1,1,1,1,1,1,1,1,1,0,0,1,1,0,0,0,0,1,0,0,0,0,
    % BASIC
    1,1,0,1,1,1,1,1,1,1,1,1,0,0,1,1,0,1,1,1,1,1,1,0,0,1,0,0,0,1,1,0,0,0,0,1,0,0,0,0,
    % PRO
    1,1,0,1,1,1,1,1,1,1,1,1,1,1,1,1,1,1,1,1,1,1,1,0,0,1,1,0,0,1,1,1,1,0,0,1,0,1,0,0,
    % ENTERPRISE
    1,1,1,1,1,1,1,1,1,1,1,1,1,1,1,1,1,1,1,1,1,1,1,1,1,1,1,1,1,1,1,1,1,1,1,1,1,1,1,1
]);
plans_usage_limits = array2d(PLANS, USAGE_LIMITS, [
    % FREE
    50,50,10,1,1,10000000,1000000,13,30,1000000,0,
    % BASIC
    1000000000000,60,4,1,1,5,10,13,30,7,0,
    % PRO
    1000000000000,150,10,1000000000000,1,10,50,13,30,30,0,
    % ENTERPRISE
    1000000000000,1000000000000,10,1000000000000,1,10000000,1000000,24,365,1000000,0
]);

linked_features = array2d(USAGE_LIMITS, FEATURES, [
    % postsLimit
    1,0,0,0,0,0,0,0,0,0,0,0,0,0,0,0,0,0,0,0,0,0,0,0,0,0,0,0,0,0,0,0,0,0,0,0,0,0,0,0,
    % postsPerMonthLimit
    1,0,0,0,0,0,0,0,0,0,0,0,0,0,0,0,0,0,0,0,0,0,0,0,0,0,0,0,0,0,0,0,0,0,0,0,0,0,0,0,
    % socialMediaPagesLimit
    0,1,0,0,0,0,0,0,0,0,0,0,0,0,0,0,0,0,0,0,0,0,0,0,0,0,0,0,0,0,0,0,0,0,0,0,0,0,0,0,
    % tweetsLimit
    0,0,1,0,0,0,0,0,0,0,0,0,0,0,0,0,0,0,0,0,0,0,0,0,0,0,0,0,0,0,0,0,0,0,0,0,0,0,0,0,
    % workspacesLimit
    0,0,0,0,0,0,0,0,1,0,0,0,0,0,0,0,0,0,0,0,0,0,0,0,0,0,0,0,0,0,0,0,0,0,0,0,0,0,0,0,
    % numberOfLabels
    0,0,0,0,0,0,0,0,0,0,0,0,0,0,1,0,0,0,0,0,0,0,0,0,0,0,0,0,0,0,0,0,0,0,0,0,0,0,0,0,
    % mediaStorageCapacity
    0,0,0,0,0,0,0,0,0,0,0,0,0,0,0,1,0,0,0,0,0,0,0,0,0,0,0,0,0,0,0,0,0,0,0,0,0,0,0,0,
    % publishedPostsStorageLimit
    0,0,0,0,0,0,0,0,0,0,0,0,0,0,0,0,0,1,0,0,0,0,0,0,0,0,0,0,0,0,0,0,0,0,0,0,0,0,0,0,
    % archivedPostsStorageLimit
    0,0,0,0,0,0,0,0,0,0,0,0,0,0,0,0,0,0,1,0,0,0,0,0,0,0,0,0,0,0,0,0,0,0,0,0,0,0,0,0,
    % versionHistoryThreshold
    0,0,0,0,0,0,0,0,0,0,0,0,0,0,0,0,0,0,0,0,0,0,0,0,0,1,0,0,0,0,0,0,0,0,0,0,0,0,0,0,
    % audienceInsights
    0,0,0,0,0,0,0,0,0,0,0,0,0,0,0,0,0,0,0,0,0,0,0,0,0,0,0,0,0,0,0,1,0,0,0,0,0,0,0,0
]);

addons_features = array2d(ADDONS, FEATURES, [
    % extraWorkspace
    0,0,0,0,0,0,0,0,0,0,0,0,0,0,0,0,0,0,0,0,0,0,0,0,0,0,0,0,0,0,0,0,0,0,0,0,0,0,0,0,
    % analyticsAndReporting
    0,0,0,0,0,0,0,0,0,0,0,0,0,0,0,0,0,0,0,0,0,0,0,0,0,0,0,0,0,0,0,1,1,1,1,0,0,0,0,0
]);
addons_usage_limits = array2d(ADDONS, USAGE_LIMITS, [
    % extraWorkspace
    0,0,0,0,1,0,0,0,0,0,0,
    % analyticsAndReporting
    0,0,0,0,0,0,0,0,0,0,0
]);
addons_usage_limits_extensions = array2d(ADDONS, USAGE_LIMITS, [
    % extraWorkspace
    0,0,0,0,1,0,0,0,0,0,0,
    % analyticsAndReporting
    0,0,0,0,0,0,0,0,0,0,0
]);
addons_available_for = array2d(ADDONS, PLANS, [
    % extraWorkspace
    1,1,1,1,
    % analyticsAndReporting
    1,1,1,1
]);

addons_depends_on = array2d(ADDONS, ADDONS, [
    % extraWorkspace
    0,0,
    % analyticsAndReporting
    0,0
]);